Optimal - objective value 5.93829581
      0 C0000000           49800                      -0
      1 C0000001           49800                      -0
      2 C0000002               1                      -0
      3 C0000003               2                      -0
      4 C0000004               3                      -0
      5 C0000005               1                      -0
      6 C0000006               1                      -0
      7 C0000007               1                      -0
      8 C0000008               0                      -0
      9 C0000009               0                      -0
     10 C0000010               1                      -0
     11 C0000011               0                      -0
     12 C0000012               1                      -0
     13 C0000013               2                      -0
     14 C0000014               0                      -0
     15 C0000015               0                      -0
     16 C0000016               0                      -0
     17 C0000017               1                      -0
     18 C0000018               0                      -0
     19 C0000019               1                      -0
     20 C0000020               0                      -0
     21 C0000021               0                      -0
     22 C0000022               0                      -0
     23 C0000023               1                      -0
     24 C0000024               1                      -0
     25 C0000025               0                      -0
     26 C0000026               1                      -0
     27 C0000027               0                      -0
     28 C0000028               0                      -0
     29 C0000029               0                      -0
     30 C0000030               0                      -0
     31 C0000031               0                      -0
     32 C0000032               0                      -0
     33 C0000033               0                      -0
     34 C0000034               0                      -0
     35 C0000035               0                      -0
     36 C0000036               0                      -0
     37 C0000037               0                      -0
     38 C0000038               0                      -0
     39 C0000039               1                      -0
     40 C0000040               0                      -0
     41 C0000041               1                      -0
     42 C0000042               0                      -0
     43 C0000043               0                      -0
     44 C0000044               0                      -0
     45 C0000045               0                      -0
     46 C0000046               0                      -0
     47 C0000047               0                      -0
     48 C0000048               0                      -0
     49 C0000049               0                      -0
     50 C0000050               0                      -0
     51 C0000051               0                      -0
     52 C0000052               0                      -0
     53 C0000053               0                      -0
     54 C0000054               0                      -0
     55 C0000055               0                      -0
     56 C0000056               0                      -0
     57 C0000057               0                      -0
     58 C0000058               0                      -0
     59 C0000059               0                      -0
     60 C0000060               0                      -0
     61 C0000061               0                      -0
     62 C0000062               0                      -0
     63 C0000063               0                      -0
     64 C0000064               0                      -0
     65 C0000065               0                      -0
     66 C0000066               0                      -0
     67 C0000067               0                      -0
     68 C0000068               0                      -0
     69 C0000069               0                      -0
     70 C0000070               1                      -0
     71 C0000071               0                      -0
     72 C0000072               0                      -0
     73 C0000073               0                      -0
     74 C0000074               1                      -0
     75 C0000075               0                      -0
     76 C0000076               0                      -0
     77 C0000077               0                      -0
     78 C0000078               0                      -0
     79 C0000079               0                      -0
     80 C0000080               0                      -0
     81 C0000081               0                      -0
     82 C0000082               0                      -0
     83 C0000083               0                      -0
     84 C0000084               0                      -0
     85 C0000085               0                      -0
     86 C0000086               0                      -0
     87 C0000087               0                      -0
     88 C0000088               0                      -0
     89 C0000089               0                      -0
     90 C0000090               0                      -0
     91 C0000091               0                      -0
     92 C0000092               0                      -0
     93 C0000093               0                      -0
     94 C0000094               1                      -0
     95 C0000095               0                      -0
     96 C0000096               0                      -0
     97 C0000097               0                      -0
     98 C0000098               0                      -0
     99 C0000099               0                      -0
    100 C0000100               0                      -0
    101 C0000101               0                      -0
    102 C0000102               0                      -0
    103 C0000103               0                      -0
    104 C0000104               0                      -0
    105 C0000105               0                      -0
    106 C0000106               0                      -0
    107 C0000107               0                      -0
    108 C0000108               0                      -0
    109 C0000109               0                      -0
    110 C0000110               1                      -0
    111 C0000111               0                      -0
    112 C0000112               0                      -0
    113 C0000113               0                      -0
    114 C0000114               0                      -0
    115 C0000115               0                      -0
    116 C0000116               0                      -0
    117 C0000117               0                      -0
    118 C0000118               0                      -0
    119 C0000119               0                      -0
    120 C0000120               0                      -0
    121 C0000121               0                      -0
    122 C0000122               0                      -0
    123 C0000123               0                      -0
    124 C0000124               0                      -0
    125 C0000125               0                      -0
    126 C0000126               0                      -0
    127 C0000127               0                      -0
    128 C0000128               0                      -0
    129 C0000129               0                      -0
    130 C0000130               0                      -0
    131 C0000131               0                      -0
    132 C0000132               0                      -0
    133 C0000133               0                      -0
    134 C0000134               0                      -0
    135 C0000135               0                      -0
    136 C0000136               1                      -0
    137 C0000137               0                      -0
    138 C0000138               0                      -0
    139 C0000139               0                      -0
    140 C0000140               0                      -0
    141 C0000141               1                      -0
    142 C0000142               0                      -0
    143 C0000143               0                      -0
    144 C0000144               0                      -0
    145 C0000145               0                      -0
    146 C0000146               0                      -0
    147 C0000147               0                      -0
    148 C0000148               0                      -0
    149 C0000149               0                      -0
    150 C0000150               0                      -0
    151 C0000151               0                      -0
    152 C0000152               0                      -0
    153 C0000153               0                      -0
    154 C0000154               0                      -0
    155 C0000155               0                      -0
    156 C0000156               0                      -0
    157 C0000157               0                      -0
    158 C0000158               0                      -0
    159 C0000159               0                      -0
    160 C0000160               0                      -0
    161 C0000161               0                      -0
    162 C0000162               0                      -0
    163 C0000163               0                      -0
    164 C0000164               0                      -0
    165 C0000165               0                      -0
    166 C0000166               0                      -0
    167 C0000167               0                      -0
    168 C0000168               0                      -0
    169 C0000169               0                      -0
    170 C0000170               1                      -0
    171 C0000171               0                      -0
    172 C0000172               0                      -0
    173 C0000173               0                      -0
    174 C0000174               0                      -0
    175 C0000175               0                      -0
    176 C0000176               0                      -0
    177 C0000177               0                      -0
    178 C0000178               0                      -0
    179 C0000179               0                      -0
    180 C0000180               0                      -0
    181 C0000181               0                      -0
    182 C0000182               0                      -0
    183 C0000183               0                      -0
    184 C0000184               0                      -0
    185 C0000185               0                      -0
    186 C0000186               0                      -0
    187 C0000187               0                      -0
    188 C0000188               0                      -0
    189 C0000189               0                      -0
    190 C0000190               0                      -0
    191 C0000191               0                      -0
    192 C0000192               0                      -0
    193 C0000193               0                      -0
    194 C0000194               0                      -0
    195 C0000195          105.66                      -0
    196 C0000196          140.06                      -0
    197 C0000197               7                      -0
    198 C0000198               7                      -0
    199 C0000199               6                      -0
    200 C0000200               7                      -0
    201 C0000201               5                      -0
    202 C0000202               7                      -0
    203 C0000203               7                      -0
    204 C0000204               6                      -0
    205 C0000205               6                      -0
    206 C0000206               7                      -0
    207 C0000207               8                      -0
    208 C0000208               6                      -0
    209 C0000209               6                      -0
    210 C0000210               6                      -0
    211 C0000211               8                      -0
      0 X0000000               0             -0.20087995
      1 X0000001               0              0.69695548
      2 X0000002               0              0.69695548
      3 X0000003               0              0.51899389
      4 X0000004               0              0.51899389
      5 X0000005               0              0.98500054
      6 X0000006               0              0.53943309
      7 X0000007               0              0.53943309
      8 X0000008               0              0.26596745
      9 X0000009               0              0.26596745
     10 X0000010               1              0.99853513
     11 X0000011               0              0.43609242
     12 X0000012               0              0.43609242
     13 X0000013               0              0.44706818
     14 X0000014               0              0.44706818
     15 X0000015               0              0.43931097
     16 X0000016               0              0.43931097
     17 X0000017               0              0.34584208
     18 X0000018               0              0.34584208
     19 X0000019               0              0.64549203
     20 X0000020               0              0.64549203
     21 X0000021               0              0.33274552
     22 X0000022               0              0.33274552
     23 X0000023               0              0.64894822
     24 X0000024               0              0.19354643
     25 X0000025               0              0.19354643
     26 X0000026               0            -0.059742209
     27 X0000027               0            -0.059742209
     28 X0000028               0                0.120377
     29 X0000029               0             0.021722305
     30 X0000030               0             0.021722305
     31 X0000031               1              0.26977431
     32 X0000032               0              0.69872691
     33 X0000033               0              0.69872691
     34 X0000034               0              0.27891571
     35 X0000035               0              0.16936689
     36 X0000036               0              0.16936689
     37 X0000037               0              0.49368203
     38 X0000038               0              0.49368203
     39 X0000039               0              0.44555102
     40 X0000040               0              0.44555102
     41 X0000041               0              0.51261073
     42 X0000042               0              0.51261073
     43 X0000043               0              0.58476886
     44 X0000044               0              0.58476886
     45 X0000045               0              0.65974648
     46 X0000046               0              0.65974648
     47 X0000047               0              0.82016739
     48 X0000048               0             -0.15975767
     49 X0000049               0              0.84600759
     50 X0000050               0              0.66451939
     51 X0000051               0              0.49516201
     52 X0000052               0              0.49516201
     53 X0000053               0              0.17716745
     54 X0000054               0              0.17716745
     55 X0000055               0              0.18275278
     56 X0000056               0              0.70504295
     57 X0000057               1              0.70504295
     58 X0000058               0             0.086036293
     59 X0000059               0             0.086036293
     60 X0000060               0              0.64749786
     61 X0000061               0              0.64749786
     62 X0000062               0              0.28942839
     63 X0000063               0              0.28942839
     64 X0000064               0              0.23431917
     65 X0000065               0             -0.12228704
     66 X0000066               0              0.49384958
     67 X0000067               0              0.49384958
     68 X0000068               0             0.072027911
     69 X0000069               0             0.072027911
     70 X0000070               0              0.44463913
     71 X0000071               0              0.44463913
     72 X0000072               0               0.5082299
     73 X0000073               0               0.5082299
     74 X0000074               0              0.63022705
     75 X0000075               1              0.63022705
     76 X0000076               0              0.45462329
     77 X0000077               0              0.45462329
     78 X0000078               0             0.082266684
     79 X0000079               0             0.082266684
     80 X0000080               0              0.24497859
     81 X0000081               0              0.24497859
     82 X0000082               0               0.3630735
     83 X0000083               0               0.3630735
     84 X0000084               0              0.65658392
     85 X0000085               0              0.65658392
     86 X0000086               0              0.34694769
     87 X0000087               0              0.34694769
     88 X0000088               0              0.63171386
     89 X0000089               0              0.63171386
     90 X0000090               0              0.53673287
     91 X0000091               1              0.53673287
     92 X0000092               0              0.51769046
     93 X0000093               0              0.51769046
     94 X0000094               0              0.34175382
     95 X0000095               0              0.34175382
     96 X0000096               0              0.30512177
     97 X0000097               0              0.30512177
     98 X0000098               0              0.22288668
     99 X0000099               0              0.22288668
    100 X0000100               0              0.22448281
    101 X0000101               0              0.22448281
    102 X0000102               0              0.17600115
    103 X0000103               0              0.88490843
    104 X0000104               0              0.54480008
    105 X0000105               0              0.54480008
    106 X0000106               0              0.77322579
    107 X0000107               0               0.8356679
    108 X0000108               0              0.25560401
    109 X0000109               0              0.25560401
    110 X0000110               0              0.22894289
    111 X0000111               0              0.54450144
    112 X0000112               0              0.54450144
    113 X0000113               0              0.27565303
    114 X0000114               0              0.54380027
    115 X0000115               0              0.54380027
    116 X0000116               0              0.93056406
    117 X0000117               0              0.68495445
    118 X0000118               1              0.68495445
    119 X0000119               0             -0.12539866
    120 X0000120               0              0.29971896
    121 X0000121               0              0.29971896
    122 X0000122               0              0.51690636
    123 X0000123               0              0.51690636
    124 X0000124               0              0.24470704
    125 X0000125               0              0.24470704
    126 X0000126               0              0.71501297
    127 X0000127               0              0.71501297
    128 X0000128               0             0.032742005
    129 X0000129               0             0.032742005
    130 X0000130               0              0.17672734
    131 X0000131               0              0.83140343
    132 X0000132               1              0.83140343
    133 X0000133               0              0.58264351
    134 X0000134               0              0.58264351
    135 X0000135               0              0.59575334
    136 X0000136               1              0.59575334
    137 X0000137               0              0.68971727
    138 X0000138               0              0.68622005
    139 X0000139               0              0.68622005
    140 X0000140               0              0.49680534
    141 X0000141               0              0.49680534
    142 X0000142               0              0.56459333
    143 X0000143               0              0.56459333
    144 X0000144               0                       1
    145 X0000145               0               0.6341621
    146 X0000146               0               0.6341621
    147 X0000147               0              0.55152765
    148 X0000148               0              0.55152765
    149 X0000149               0              0.86220885
    150 X0000150               0              0.31592736
    151 X0000151               0              0.31592736
    152 X0000152               0              0.43715892
    153 X0000153               0              0.43715892
    154 X0000154               0              0.52899895
    155 X0000155               0              0.52899895
    156 X0000156               0             -0.11310263
    157 X0000157               0              0.87750272
    158 X0000158               0              0.55835938
    159 X0000159               0              0.55835938
    160 X0000160               0              0.54518284
    161 X0000161               0              0.54518284
    162 X0000162               0               0.5863736
    163 X0000163               0               0.5863736
    164 X0000164               0              0.19073292
    165 X0000165               0              0.19073292
    166 X0000166               0              0.87232483
    167 X0000167               0              0.50939125
    168 X0000168               0              0.50939125
    169 X0000169               0              0.61669892
    170 X0000170               0              0.61669892
    171 X0000171               0              0.35267569
    172 X0000172               0              0.35267569
    173 X0000173               0               0.5609685
    174 X0000174               0               0.5609685
    175 X0000175               0              0.16925042
    176 X0000176               0              0.16925042
    177 X0000177               0              0.14556946
    178 X0000178               0              0.14556946
    179 X0000179               0              0.50973362
    180 X0000180               0              0.50973362
    181 X0000181               0              0.37601955
    182 X0000182               0              0.37601955
    183 X0000183               0              0.60724451
    184 X0000184               0              0.60724451
    185 X0000185               0              0.36518769
    186 X0000186               0              0.36518769
    187 X0000187               0              0.76887271
    188 X0000188               0              0.61162044
    189 X0000189               0              0.61162044
    190 X0000190               0             -0.24839683
    191 X0000191               0              0.64875827
    192 X0000192               1              0.68587229
    193 X0000193               0              0.68587229
    194 X0000194               0              0.32877545
    195 X0000195               0              0.32877545
    196 X0000196               0              0.57119989
    197 X0000197               0              0.57119989
    198 X0000198               0              0.77577366
    199 X0000199               0              0.77319179
    200 X0000200               0              0.17469828
    201 X0000201               0              0.17469828
    202 X0000202               0              0.74680581
    203 X0000203               0              0.50516172
    204 X0000204               0              0.50516172
    205 X0000205               0              0.34677288
    206 X0000206               0              0.34677288
    207 X0000207               0              0.32955672
    208 X0000208               0              0.32955672
    209 X0000209               0              0.43178179
    210 X0000210               0              0.43178179
    211 X0000211               0              0.07684479
    212 X0000212               0              0.07684479
    213 X0000213               0              0.29114577
    214 X0000214               0              0.29114577
    215 X0000215               0             -0.12035515
    216 X0000216               0              0.35175445
    217 X0000217               0              0.35175445
    218 X0000218               0              0.40183764
    219 X0000219               0              0.40183764
    220 X0000220               0              0.69843544
    221 X0000221               0              0.69843544
    222 X0000222               0              0.19378957
    223 X0000223               0              0.19378957
    224 X0000224               0             -0.14644852
    225 X0000225               0              0.19432117
    226 X0000226               0              0.21122796
    227 X0000227               0              0.21122796
    228 X0000228               0              0.41345172
    229 X0000229               0              0.41345172
    230 X0000230               0              0.45305128
    231 X0000231               0              0.45305128
    232 X0000232               0             -0.18145809
    233 X0000233               0             -0.18145809
    234 X0000234               0              0.42399427
    235 X0000235               0              0.42399427
    236 X0000236               0              0.15597602
    237 X0000237               0              0.15597602
    238 X0000238               0              0.71508367
    239 X0000239               0              0.44646774
    240 X0000240               0              0.44646774
    241 X0000241               0              0.66495551
    242 X0000242               0              0.66495551
    243 X0000243               0             -0.18336682
    244 X0000244               0              0.47664804
    245 X0000245               0              0.47664804
    246 X0000246               0              0.28341723
    247 X0000247               0              0.28341723
    248 X0000248               0              0.67112607
    249 X0000249               0              0.67112607
    250 X0000250               0              0.69816973
    251 X0000251               0              0.69816973
    252 X0000252               0             0.043596218
    253 X0000253               0             0.043596218
    254 X0000254               0             -0.14957584
    255 X0000255               0              0.50395052
    256 X0000256               0              0.50395052
    257 X0000257               0              0.40991601
    258 X0000258               0              0.40991601
    259 X0000259               0              0.45507328
    260 X0000260               0              0.45507328
    261 X0000261               0              0.21255217
    262 X0000262               0              0.21255217
    263 X0000263               0              0.59418751
    264 X0000264               0              0.59418751
    265 X0000265               0              0.67707701
    266 X0000266               0              0.20227974
    267 X0000267               0              0.20227974
    268 X0000268               0              0.32131754
    269 X0000269               0              0.32131754
    270 X0000270               0              0.29713413
    271 X0000271               0              0.29713413
    272 X0000272               0              0.26751025
    273 X0000273               0              0.26751025
    274 X0000274               0              0.22411708
    275 X0000275               0              0.22411708
    276 X0000276               0              0.23442188
    277 X0000277               0              0.23442188
    278 X0000278               0              0.54518085
    279 X0000279               0              0.54518085
    280 X0000280               0              0.44469236
    281 X0000281               0              0.44469236
    282 X0000282               0              0.19292351
    283 X0000283               0              0.51688562
    284 X0000284               0              0.51688562
    285 X0000285               0              0.29357091
    286 X0000286               0              0.29357091
